words_hard_train/1556.qaiger
aag 120 16 0 1 104
2
4
8
10
14
18
22
26
32
44
48
56
66
76
88
114
241
6 3 4
12 9 11
16 12 15
20 16 19
24 20 23
28 24 27
30 6 28
34 30 33
36 25 4
38 37 26
40 36 27
42 39 41
46 44 19
50 48 8
52 47 51
54 8 10
58 55 56
60 58 13
62 52 61
64 13 14
68 65 66
70 68 17
72 62 71
74 17 22
78 75 76
80 16 23
82 78 81
84 72 83
86 81 26
90 87 88
92 80 27
94 90 93
96 85 94
98 84 95
100 97 99
102 43 100
104 29 4
106 105 2
108 104 3
110 107 109
112 93 2
116 113 114
118 92 3
120 116 119
122 99 120
124 98 121
126 123 125
128 111 126
130 103 129
132 21 4
134 133 22
136 132 23
138 135 137
140 73 82
142 141 85
144 138 143
146 53 60
148 147 63
150 19 9
152 151 4
154 153 10
156 152 11
158 155 157
160 18 4
162 161 9
164 163 53
166 160 8
168 46 50
170 167 169
172 164 170
174 159 172
176 149 175
178 158 173
180 177 179
182 12 19
184 183 4
186 185 14
188 184 15
190 187 189
192 63 70
194 193 73
196 190 195
198 180 197
200 191 194
202 199 201
204 139 142
206 202 205
208 145 207
210 42 101
212 208 211
214 130 213
216 110 127
218 215 217
220 219 125
222 35 221
224 119 4
226 225 32
228 161 118
230 226 229
232 223 231
234 218 124
236 232 235
238 230 234
240 237 239
i0 1 x2[6]
i1 1 x2[7]
i2 1 x2[1]
i3 1 x2[2]
i4 1 x2[3]
i5 1 x2[0]
i6 1 x2[4]
i7 1 x2[5]
i8 2 y2[7]
i9 2 y2[0]
i10 2 y2[1]
i11 2 y2[2]
i12 2 y2[3]
i13 2 y2[4]
i14 2 y2[5]
i15 2 y2[6]
o0 bv[0]
c
simplified
  >
    and
      2 y2
      subtract
        1
        1 x2
    abs
      1 x2
