words_hard_train/1556.qaiger.qdimacs
p cnf 120 313
a 1 2 4 5 7 9 11 13 0
e 3 6 8 10 12 14 15 16 17 18 19 20 21 22 23 24 25 26 27 28 29 30 31 32 33 34 35 36 37 38 39 40 41 42 43 44 45 46 47 48 49 50 51 52 53 54 55 56 57 58 59 60 61 62 63 64 65 66 67 68 69 70 71 72 73 74 75 76 77 78 79 80 81 82 83 84 85 86 87 88 89 90 91 92 93 94 95 96 97 98 99 100 101 102 103 104 105 106 107 108 109 110 111 112 113 114 115 116 117 118 119 120 0
1 -2 3 0
-1 -3 0
2 -3 0
4 5 6 0
-4 -6 0
-5 -6 0
-6 7 8 0
6 -8 0
-7 -8 0
-8 9 10 0
8 -10 0
-9 -10 0
-10 11 12 0
10 -12 0
-11 -12 0
-12 13 14 0
12 -14 0
-13 -14 0
-3 -14 15 0
3 -15 0
14 -15 0
-15 16 17 0
15 -17 0
-16 -17 0
12 -2 18 0
-12 -18 0
2 -18 0
18 -13 19 0
-18 -19 0
13 -19 0
-18 13 20 0
18 -20 0
-13 -20 0
19 20 21 0
-19 -21 0
-20 -21 0
-22 9 23 0
22 -23 0
-9 -23 0
-24 -4 25 0
24 -25 0
4 -25 0
23 25 26 0
-23 -26 0
-25 -26 0
-4 -5 27 0
4 -27 0
5 -27 0
27 -28 29 0
-27 -29 0
28 -29 0
-29 6 30 0
29 -30 0
-6 -30 0
-26 30 31 0
26 -31 0
-30 -31 0
6 -7 32 0
-6 -32 0
7 -32 0
32 -33 34 0
-32 -34 0
33 -34 0
-34 8 35 0
34 -35 0
-8 -35 0
-31 35 36 0
31 -36 0
-35 -36 0
8 -11 37 0
-8 -37 0
11 -37 0
37 -38 39 0
-37 -39 0
38 -39 0
-8 11 40 0
8 -40 0
-11 -40 0
-39 40 41 0
39 -41 0
-40 -41 0
-36 41 42 0
36 -42 0
-41 -42 0
40 -13 43 0
-40 -43 0
13 -43 0
43 -44 45 0
-43 -45 0
44 -45 0
-40 13 46 0
40 -46 0
-13 -46 0
-45 46 47 0
45 -47 0
-46 -47 0
42 -47 48 0
-42 -48 0
47 -48 0
-42 47 49 0
42 -49 0
-47 -49 0
48 49 50 0
-48 -50 0
-49 -50 0
21 -50 51 0
-21 -51 0
50 -51 0
14 -2 52 0
-14 -52 0
2 -52 0
52 -1 53 0
-52 -53 0
1 -53 0
-52 1 54 0
52 -54 0
-1 -54 0
53 54 55 0
-53 -55 0
-54 -55 0
46 -1 56 0
-46 -56 0
1 -56 0
56 -57 58 0
-56 -58 0
57 -58 0
-46 1 59 0
46 -59 0
-1 -59 0
-58 59 60 0
58 -60 0
-59 -60 0
49 -60 61 0
-49 -61 0
60 -61 0
-49 60 62 0
49 -62 0
-60 -62 0
61 62 63 0
-61 -63 0
-62 -63 0
55 -63 64 0
-55 -64 0
63 -64 0
51 64 65 0
-51 -65 0
-64 -65 0
10 -2 66 0
-10 -66 0
2 -66 0
66 -11 67 0
-66 -67 0
11 -67 0
-66 11 68 0
66 -68 0
-11 -68 0
67 68 69 0
-67 -69 0
-68 -69 0
36 -41 70 0
-36 -70 0
41 -70 0
70 42 71 0
-70 -71 0
-42 -71 0
-69 71 72 0
69 -72 0
-71 -72 0
26 -30 73 0
-26 -73 0
30 -73 0
73 31 74 0
-73 -74 0
-31 -74 0
9 4 75 0
-9 -75 0
-4 -75 0
75 -2 76 0
-75 -76 0
2 -76 0
76 -5 77 0
-76 -77 0
5 -77 0
-76 5 78 0
76 -78 0
-5 -78 0
77 78 79 0
-77 -79 0
-78 -79 0
-9 -2 80 0
9 -80 0
2 -80 0
80 4 81 0
-80 -81 0
-4 -81 0
81 26 82 0
-81 -82 0
-26 -82 0
-80 -4 83 0
80 -83 0
4 -83 0
-23 -25 84 0
23 -84 0
25 -84 0
83 84 85 0
-83 -85 0
-84 -85 0
-82 -85 86 0
82 -86 0
85 -86 0
79 -86 87 0
-79 -87 0
86 -87 0
74 87 88 0
-74 -88 0
-87 -88 0
-79 86 89 0
79 -89 0
-86 -89 0
88 89 90 0
-88 -90 0
-89 -90 0
-6 9 91 0
6 -91 0
-9 -91 0
91 -2 92 0
-91 -92 0
2 -92 0
92 -7 93 0
-92 -93 0
7 -93 0
-92 7 94 0
92 -94 0
-7 -94 0
93 94 95 0
-93 -95 0
-94 -95 0
31 -35 96 0
-31 -96 0
35 -96 0
96 36 97 0
-96 -97 0
-36 -97 0
-95 97 98 0
95 -98 0
-97 -98 0
-90 98 99 0
90 -99 0
-98 -99 0
95 -97 100 0
-95 -100 0
97 -100 0
99 100 101 0
-99 -101 0
-100 -101 0
69 -71 102 0
-69 -102 0
71 -102 0
-101 102 103 0
101 -103 0
-102 -103 0
72 103 104 0
-72 -104 0
-103 -104 0
-21 50 105 0
21 -105 0
-50 -105 0
-104 105 106 0
104 -106 0
-105 -106 0
-65 106 107 0
65 -107 0
-106 -107 0
-55 63 108 0
55 -108 0
-63 -108 0
107 108 109 0
-107 -109 0
-108 -109 0
109 62 110 0
-109 -110 0
-62 -110 0
17 110 111 0
-17 -111 0
-110 -111 0
59 -2 112 0
-59 -112 0
2 -112 0
112 -16 113 0
-112 -113 0
16 -113 0
80 -59 114 0
-80 -114 0
59 -114 0
-113 114 115 0
113 -115 0
-114 -115 0
111 115 116 0
-111 -116 0
-115 -116 0
-109 -62 117 0
109 -117 0
62 -117 0
-116 117 118 0
116 -118 0
-117 -118 0
-115 -117 119 0
115 -119 0
117 -119 0
118 119 120 0
-118 -120 0
-119 -120 0
-120 0
